2016/day15/__tmp.lp
Minimize
 obj: X_1
Subject To
 -X0 >= -72057594037927902
 X0 >= 20
 -X1 >= -6550690367084357
 X1 >= 2
 -11 X1 + X2 = 0
 -X2 >= -72057594037927913
 X2 >= 25
 -X2 + X0 = -7
 -X3 >= -14411518807585585
 X3 >= 4
 -5 X3 + X4 = 0
 -X4 >= -72057594037927912
 X4 >= 24
 -X4 + X0 = -6
 -X5 >= -10293942005418275
 X5 >= 3
 -7 X5 + X6 = 0
 -X6 >= -72057594037927913
 X6 >= 25
 -X6 + X0 = -7
 -X7 >= -5542891849071378
 X7 >= 2
 -13 X7 + X8 = 0
 -X8 >= -72057594037927912
 X8 >= 26
 -X8 + X0 = -6
 -X9 >= -3792504949364627
 X9 >= 1
 -19 X9 + X10 = 0
 -X10 >= -72057594037927913
 X10 >= 27
 -X10 + X0 = -7
 -X11 >= -24019198012642636
 X11 >= 6
 -3 X11 + X12 = 0
 -X12 >= -72057594037927908
 X12 >= 24
 -X12 + X0 = -4
 -X13 >= -4238682002231054
 X13 >= 2
 -17 X13 + X14 = 0
 -X14 >= -72057594037927918
 X14 >= 36
 -X14 + X0 = -16
Bounds
 0 <= X_1 <= 0
 20 <= X0 <= 72057594037927902
 2 <= X1 <= 6550690367084357
 25 <= X2 <= 72057594037927913
 4 <= X3 <= 14411518807585585
 24 <= X4 <= 72057594037927912
 3 <= X5 <= 10293942005418275
 25 <= X6 <= 72057594037927913
 2 <= X7 <= 5542891849071378
 26 <= X8 <= 72057594037927912
 1 <= X9 <= 3792504949364627
 27 <= X10 <= 72057594037927913
 6 <= X11 <= 24019198012642636
 24 <= X12 <= 72057594037927908
 2 <= X13 <= 4238682002231054
 36 <= X14 <= 72057594037927918
Integers
 X_1
 X0
 X1
 X2
 X3
 X4
 X5
 X6
 X7
 X8
 X9
 X10
 X11
 X12
 X13
 X14
End
