2016/day15/__tmp.sol
Problem:    
Rows:       44
Columns:    16 (16 integer, 0 binary)
Non-zeros:  58
Status:     INTEGER OPTIMAL
Objective:  obj = 0 (MINimum)

   No.   Row name        Activity     Lower bound   Upper bound
------ ------------    ------------- ------------- -------------
     1 r.4              -3.04596e+06  -7.20576e+16               
     2 r.5               3.04596e+06            20               
     3 r.6                   -276906  -6.55069e+15               
     4 r.7                    276906             2               
     5 r.8                         0             0             = 
     6 r.9              -3.04597e+06  -7.20576e+16               
     7 r.10              3.04597e+06            25               
     8 r.11                       -7            -7             = 
     9 r.12                  -609193  -1.44115e+16               
    10 r.13                   609193             4               
    11 r.14                        0             0             = 
    12 r.15             -3.04596e+06  -7.20576e+16               
    13 r.16              3.04596e+06            24               
    14 r.17                       -6            -6             = 
    15 r.18                  -435138  -1.02939e+16               
    16 r.19                   435138             3               
    17 r.20                        0             0             = 
    18 r.21             -3.04597e+06  -7.20576e+16               
    19 r.22              3.04597e+06            25               
    20 r.23                       -7            -7             = 
    21 r.24                  -234305  -5.54289e+15               
    22 r.25                   234305             2               
    23 r.26                        0             0             = 
    24 r.27             -3.04596e+06  -7.20576e+16               
    25 r.28              3.04596e+06            26               
    26 r.29                       -6            -6             = 
    27 r.30                  -160314   -3.7925e+15               
    28 r.31                   160314             1               
    29 r.32                        0             0             = 
    30 r.33             -3.04597e+06  -7.20576e+16               
    31 r.34              3.04597e+06            27               
    32 r.35                       -7            -7             = 
    33 r.36             -1.01532e+06  -2.40192e+16               
    34 r.37              1.01532e+06             6               
    35 r.38                        0             0             = 
    36 r.39             -3.04596e+06  -7.20576e+16               
    37 r.40              3.04596e+06            24               
    38 r.41                       -4            -4             = 
    39 r.42                  -179175  -4.23868e+15               
    40 r.43                   179175             2               
    41 r.44                        0             0             = 
    42 r.45             -3.04598e+06  -7.20576e+16               
    43 r.46              3.04598e+06            36               
    44 r.47                      -16           -16             = 

   No. Column name       Activity     Lower bound   Upper bound
------ ------------    ------------- ------------- -------------
     1 X_1          *              0             0             = 
     2 X0           *    3.04596e+06            20   7.20576e+16 
     3 X1           *         276906             2   6.55069e+15 
     4 X2           *    3.04597e+06            25   7.20576e+16 
     5 X3           *         609193             4   1.44115e+16 
     6 X4           *    3.04596e+06            24   7.20576e+16 
     7 X5           *         435138             3   1.02939e+16 
     8 X6           *    3.04597e+06            25   7.20576e+16 
     9 X7           *         234305             2   5.54289e+15 
    10 X8           *    3.04596e+06            26   7.20576e+16 
    11 X9           *         160314             1    3.7925e+15 
    12 X10          *    3.04597e+06            27   7.20576e+16 
    13 X11          *    1.01532e+06             6   2.40192e+16 
    14 X12          *    3.04596e+06            24   7.20576e+16 
    15 X13          *         179175             2   4.23868e+15 
    16 X14          *    3.04598e+06            36   7.20576e+16 

Integer feasibility conditions:

KKT.PE: max.abs.err = 0.00e+00 on row 0
        max.rel.err = 0.00e+00 on row 0
        High quality

KKT.PB: max.abs.err = 0.00e+00 on row 0
        max.rel.err = 0.00e+00 on row 0
        High quality

End of output
